
******************************************************************************
This program contains Ipopt, a library for large-scale nonlinear optimization.
 Ipopt is released as open source code under the Eclipse Public License (EPL).
         For more information visit http://projects.coin-or.org/Ipopt

This version of Ipopt was compiled from source code available at
    https://github.com/IDAES/Ipopt as part of the Institute for the Design of
    Advanced Energy Systems Process Systems Engineering Framework (IDAES PSE
    Framework) Copyright (c) 2018-2019. See https://github.com/IDAES/idaes-pse.

This version of Ipopt was compiled using HSL, a collection of Fortran codes
    for large-scale scientific computation.  All technical papers, sales and
    publicity material resulting from use of the HSL codes within IPOPT must
    contain the following acknowledgement:
        HSL, a collection of Fortran codes for large-scale scientific
        computation. See http://www.hsl.rl.ac.uk.
******************************************************************************

This is Ipopt version 3.13.2, running with linear solver ma27.

Number of nonzeros in equality constraint Jacobian...:      958
Number of nonzeros in inequality constraint Jacobian.:        0
Number of nonzeros in Lagrangian Hessian.............:      832

Total number of variables............................:      416
                     variables with only lower bounds:      128
                variables with lower and upper bounds:      224
                     variables with only upper bounds:        0
Total number of equality constraints.................:      415
Total number of inequality constraints...............:        0
        inequality constraints with only lower bounds:        0
   inequality constraints with lower and upper bounds:        0
        inequality constraints with only upper bounds:        0

iter    objective    inf_pr   inf_du lg(mu)  ||d||  lg(rg) alpha_du alpha_pr  ls
   0  0.0000000e+00 2.12e-01 4.44e-16  -1.0 0.00e+00    -  0.00e+00 0.00e+00   0
   1  2.7982691e-01 2.10e-01 8.28e+04  -1.0 3.54e+06    -  4.45e-02 1.35e-02f  5
   2  5.3802064e-01 2.08e-01 9.20e+04  -1.0 4.08e+06    -  1.98e-01 5.70e-03h  6
   3  5.4941252e-01 2.08e-01 9.37e+04  -1.0 3.25e+06  -4.0 6.38e-02 2.24e-04h 11
   4  5.5000503e-01 2.08e-01 9.37e+04  -1.0 6.97e+06  -4.5 3.10e-01 2.80e-05h 13
   5  5.4948327e-01 2.08e-01 9.37e+04  -1.0 1.46e+07  -5.0 5.93e-02 2.63e-05h 12
   6  5.4739690e-01 2.08e-01 1.02e+05  -1.0 1.34e+07    -  1.82e-01 4.56e-04h  8
   7  1.4232909e+01 1.94e-01 6.59e+06  -1.0 5.32e+06    -  6.98e-02 7.06e-02h  4
   8  3.2777555e+01 1.91e-01 3.37e+07  -1.0 3.76e+07    -  2.90e-02 1.13e-02h  4
   9  3.0777633e+01 1.89e-01 3.19e+07  -1.0 9.13e+06    -  1.72e-01 1.06e-02f  5
iter    objective    inf_pr   inf_du lg(mu)  ||d||  lg(rg) alpha_du alpha_pr  ls
  10  3.0531203e+01 1.89e-01 3.18e+07  -1.0 8.82e+06    -  2.24e-01 1.28e-03f  8
  11  1.0568511e+02 3.95e+01 1.12e+10  -1.0 7.31e+06  -3.6 2.83e-01 1.24e-01w  1
  12  8.5185011e+01 4.26e+01 1.08e+10  -1.0 1.10e+06  -3.2 1.64e-01 5.67e-01w  1
  13  1.0142011e+02 4.13e+01 2.84e+10  -1.0 8.62e+05  -2.8 1.57e-01 7.62e-01w  1
  14  3.0492599e+01 1.89e-01 3.17e+07  -1.0 8.27e+05    -  2.83e-01 4.83e-04f  8
  15  3.0636408e+01 1.84e-01 1.15e+07  -1.0 1.44e+07    -  1.26e-01 2.50e-02f  3
  16  2.9385420e+01 1.83e-01 9.14e+06  -1.0 7.41e+06    -  2.19e-01 4.54e-03f  6
  17  2.9003345e+01 1.83e-01 9.20e+06  -1.0 7.07e+06    -  5.07e-01 1.13e-03f  8
  18  2.8830586e+01 1.83e-01 8.92e+06  -1.0 6.94e+06    -  6.58e-01 6.04e-04f  9
  19  2.7897308e+01 1.83e-01 1.43e+07  -1.0 6.81e+06    -  6.54e-01 2.42e-03f  7
iter    objective    inf_pr   inf_du lg(mu)  ||d||  lg(rg) alpha_du alpha_pr  ls
  20  2.7734842e+01 1.83e-01 2.13e+07  -1.0 6.54e+06    -  6.56e-01 6.23e-04f  9
  21  1.6619595e+01 8.30e+00 2.94e+09  -1.0 6.49e+06    -  6.56e-01 9.13e-02f  2
  22  1.9893240e+01 7.61e+00 2.51e+09  -1.0 2.02e+06    -  5.19e-01 8.31e-02h  3
  23  2.2052116e+01 7.27e+00 2.36e+09  -1.0 1.41e+06    -  5.55e-01 4.48e-02h  4
  24  5.4753773e+01 3.95e+01 6.67e+09  -1.0 1.22e+06    -  5.72e-01 3.71e-01w  1
  25  4.5446212e+01 3.09e+00 2.76e+10  -1.0 8.01e+05    -  1.59e-01 9.90e-01h  1
  26  1.2127970e+02 1.70e+00 1.22e+10  -1.0 1.21e+06    -  2.41e-01 9.90e-01h  1
  27  3.7126280e+02 7.87e-01 6.82e+09  -1.0 1.70e+06  -3.3 3.52e-01 9.90e-01h  1
  28  3.0486848e+03 3.19e-01 1.09e+11  -1.0 6.59e+06    -  4.81e-01 9.90e-01h  1
  29  2.2300110e+03 1.24e-01 2.18e+10  -1.0 1.29e+06  -3.7 8.59e-01 9.90e-01f  1
iter    objective    inf_pr   inf_du lg(mu)  ||d||  lg(rg) alpha_du alpha_pr  ls
  30  4.2378158e+03 4.33e-02 6.99e+10  -1.0 3.20e+06    -  7.44e-01 9.90e-01h  1
  31  6.1562069e+03 8.44e-03 2.73e+12  -1.0 2.40e+06    -  8.73e-01 9.90e-01h  1
In iteration 31, 32 Slacks too small, adjusting variable bounds
  32  6.1630793e+03 3.53e-04 5.32e+13  -1.0 5.64e+04  -4.2 9.67e-01 9.90e-01h  1
  33  6.1631648e+03 3.86e-07 2.17e+13  -1.0 2.14e+03  -4.7 9.90e-01 1.00e+00h  1
  34  4.1529232e+03 4.12e-03 1.88e+05  -1.0 2.52e+06    -  1.00e+00 1.00e+00f  1
  35  4.1538520e+03 1.97e-05 1.05e+11  -3.8 1.49e+04  -5.2 9.95e-01 1.00e+00h  1
  36  2.7499411e+03 1.85e-03 1.82e+10  -3.8 2.16e+06    -  8.26e-01 1.00e+00f  1
  37  5.9424733e+01 6.97e+00 3.63e+05  -3.8 2.01e+07    -  1.00e+00 4.96e-01f  1
  38  8.1682282e+01 5.22e+00 5.73e+06  -3.8 2.94e+05  -5.6 1.00e+00 1.00e+00h  1
  39  1.9646460e+02 4.46e+00 1.35e+07  -3.8 1.88e+06    -  1.25e-01 5.00e-01h  2
iter    objective    inf_pr   inf_du lg(mu)  ||d||  lg(rg) alpha_du alpha_pr  ls
  40  8.1359857e+02 2.88e+00 7.74e+07  -3.8 2.67e+06    -  9.59e-01 1.00e+00h  1
  41  3.2135031e+03 2.35e+00 4.88e+07  -3.8 2.04e+07    -  2.61e-01 2.50e-01h  3
  42  3.8240697e+03 2.33e+00 4.83e+07  -3.8 1.08e+08    -  1.13e-01 8.57e-03h  6
  43  4.1329078e+03 2.33e+00 4.82e+07  -3.8 1.46e+08    -  6.07e-01 3.00e-03h  7
  44  4.1521225e+03 2.33e+00 4.82e+07  -3.8 1.72e+08    -  7.43e-02 1.56e-04h 11
  45  4.7239769e+04 2.09e+00 1.56e+07  -3.8 1.74e+08    -  1.57e-01 1.57e-01s 20
  46  4.7240210e+04 2.09e+00 1.56e+07  -3.8 2.21e+06  -6.1 1.85e-04 1.85e-04s 20
  47r 4.7240210e+04 2.09e+00 1.00e+03   0.3 0.00e+00  -6.6 0.00e+00 0.00e+00R  1
  48r 4.7240228e+04 2.56e+01 1.20e+03   0.3 5.97e+04    -  2.42e-03 4.06e-03f  2
  49r 4.7240228e+04 2.45e+01 9.51e+02   0.3 1.29e+03    -  1.85e-01 4.43e-02f  1
iter    objective    inf_pr   inf_du lg(mu)  ||d||  lg(rg) alpha_du alpha_pr  ls
  50r 4.7240227e+04 8.79e+01 1.34e+03   0.3 1.50e+04    -  8.05e-03 1.24e-02f  1
  51r 4.7240225e+04 8.08e+01 8.61e+02   0.3 1.16e+03    -  1.70e-01 7.98e-02f  1
  52r 4.7240224e+04 7.73e+01 8.63e+02   0.3 6.95e+02    -  2.09e-03 4.40e-02f  1
  53r 4.7240227e+04 7.25e+01 6.97e+02   0.3 4.43e+02    -  3.29e-01 6.17e-02f  1
  54r 4.7240247e+04 5.41e+01 5.71e+02   0.3 4.23e+02    -  1.00e+00 2.54e-01f  1
  55r 4.7240318e+04 1.73e+01 4.62e+02   0.3 4.68e+02    -  2.25e-01 6.81e-01f  1
  56r 4.7240517e+04 1.43e-01 9.25e+01   0.3 3.89e+02    -  7.96e-01 1.00e+00h  1
  57r 4.7240517e+04 1.42e-01 1.57e+02  -0.4 1.05e+02  -2.0 3.20e-02 5.59e-02f  1
  58r 4.7240517e+04 1.42e-01 1.91e+02  -0.4 9.46e+00  -0.7 1.41e-02 2.26e-02f  1
  59r 4.7240517e+04 1.39e-01 2.16e+02  -0.4 1.10e-01   2.5 9.69e-01 4.93e-01f  1
iter    objective    inf_pr   inf_du lg(mu)  ||d||  lg(rg) alpha_du alpha_pr  ls
  60r 4.7240517e+04 1.31e-01 3.61e+01  -0.4 2.15e-01   2.0 1.00e+00 9.54e-01f  1
  61r 4.7240549e+04 1.32e-01 4.98e+02  -0.4 4.07e+03    -  9.59e-02 1.56e-02f  1
  62r 4.7240625e+04 1.33e-01 8.46e+02  -0.4 1.44e+03    -  7.68e-01 2.79e-01f  1
  63r 4.7240676e+04 1.34e-01 5.17e+02  -0.4 7.94e+02    -  8.25e-01 2.62e-01f  1
  64r 4.7240822e+04 1.34e-01 1.43e+00  -0.4 4.88e+02    -  1.00e+00 1.00e+00f  1
  65r 4.7240806e+04 1.36e-01 5.78e+01  -1.8 7.16e+02    -  6.30e-01 5.41e-01f  1
  66r 4.7241719e+04 1.34e-01 1.77e+02  -1.8 4.77e+03    -  7.49e-01 3.79e-01f  1
  67r 4.7242147e+04 1.33e-01 3.69e+02  -1.8 3.17e+03    -  1.00e+00 2.82e-01f  1
  68r 4.7242470e+04 1.32e-01 2.41e+02  -1.8 2.38e+03    -  6.77e-01 2.97e-01f  1
  69r 4.7243029e+04 1.32e-01 8.66e+01  -1.8 1.70e+03    -  1.00e+00 7.34e-01f  1
iter    objective    inf_pr   inf_du lg(mu)  ||d||  lg(rg) alpha_du alpha_pr  ls
  70r 4.7243234e+04 1.31e-01 2.13e-03  -1.8 4.94e+02    -  1.00e+00 1.00e+00f  1
  71r 4.7243224e+04 1.32e-01 6.73e+00  -4.0 2.81e+02    -  8.64e-01 9.63e-01f  1
  72r 4.7244468e+04 1.29e-01 1.53e+03  -4.0 8.73e+04    -  8.75e-01 3.17e-02f  1
  73r 4.7244677e+04 1.28e-01 1.24e+03  -4.0 6.11e+04    -  7.70e-01 5.30e-03f  1
  74r 4.7254975e+04 1.13e-01 1.20e+03  -4.0 4.87e+04    -  1.00e+00 2.58e-01f  1
  75r 4.7255180e+04 1.13e-01 1.13e+03  -4.0 3.62e+04    -  1.00e+00 6.97e-03f  1
  76r 4.7283757e+04 8.34e-02 3.08e+01  -4.0 3.60e+04    -  1.00e+00 9.74e-01f  1
  77r 4.7284444e+04 8.27e-02 1.64e-03  -4.0 1.58e+03    -  1.00e+00 1.00e+00h  1
  78r 4.7284444e+04 8.27e-02 2.92e+00  -6.0 7.57e-01    -  8.13e-01 1.00e+00f  1
  79r 4.7400959e+04 2.92e-02 3.51e+02  -6.0 4.98e+05    -  8.09e-01 2.51e-01f  1
iter    objective    inf_pr   inf_du lg(mu)  ||d||  lg(rg) alpha_du alpha_pr  ls
  80r 4.7400960e+04 2.92e-02 7.08e+02  -6.0 1.60e+05    -  1.00e+00 1.18e-06f  1
  81r 4.7735141e+04 1.18e-02 4.33e+00  -6.0 1.41e+05    -  1.00e+00 1.00e+00f  1
  82r 4.7737690e+04 1.07e-02 9.72e-02  -6.0 8.27e+03    -  1.00e+00 1.00e+00f  1
  83r 4.7737717e+04 1.07e-02 1.02e-06  -6.0 3.23e+01    -  1.00e+00 1.00e+00f  1
  84r 4.7737717e+04 1.31e-02 1.13e+00  -9.0 2.40e-02    -  8.18e-01 9.97e-01f  1
  85r 4.7737717e+04 1.31e-02 9.92e+01  -9.0 5.21e-06   1.5 1.00e+00 7.81e-03f  8
  86r 4.7737717e+04 1.31e-02 1.73e-04  -9.0 1.60e-05   1.0 1.00e+00 1.00e+00h  1
  87r 4.7737717e+04 1.31e-02 1.36e-04  -9.0 3.79e-05   0.6 1.00e+00 1.00e+00h  1
  88r 4.7737717e+04 1.31e-02 1.31e-04  -9.0 1.09e-04   0.1 1.00e+00 1.00e+00h  1
  89r 4.7737717e+04 1.31e-02 1.13e-01  -9.0 3.28e-04  -0.4 1.00e+00 2.50e-01h  3
iter    objective    inf_pr   inf_du lg(mu)  ||d||  lg(rg) alpha_du alpha_pr  ls
  90r 4.7737717e+04 1.31e-02 1.31e-04  -9.0 9.83e-04  -0.9 1.00e+00 1.00e+00H  1
  91r 4.7737717e+04 1.31e-02 5.01e-03  -9.0 2.95e-03  -1.4 1.00e+00 2.50e-01h  3
  92r 4.7737717e+04 1.31e-02 1.31e-04  -9.0 8.85e-03  -1.8 1.00e+00 1.00e+00f  1
  93r 4.7737717e+04 1.32e-02 1.31e-04  -9.0 2.65e-02  -2.3 1.00e+00 1.00e+00f  1
  94r 4.7737717e+04 1.32e-02 1.31e-04  -9.0 7.96e-02  -2.8 1.00e+00 1.00e+00f  1
  95r 4.7737717e+04 1.34e-02 1.31e-04  -9.0 2.39e-01  -3.3 1.00e+00 1.00e+00f  1
  96r 4.7737717e+04 1.39e-02 1.31e-04  -9.0 7.17e-01  -3.7 1.00e+00 1.00e+00f  1
  97r 4.7737717e+04 1.48e-02 1.31e-04  -9.0 2.15e+00  -4.2 1.00e+00 1.00e+00f  1
  98r 4.7737717e+04 1.57e-02 1.31e-04  -9.0 6.45e+00  -4.7 1.00e+00 1.00e+00f  1
  99r 4.7737716e+04 1.59e-02 1.31e-04  -9.0 1.94e+01  -5.2 1.00e+00 1.00e+00f  1
iter    objective    inf_pr   inf_du lg(mu)  ||d||  lg(rg) alpha_du alpha_pr  ls
 100r 4.7737716e+04 1.59e-02 1.31e-04  -9.0 5.81e+01  -5.6 1.00e+00 1.00e+00f  1
 101r 4.7737714e+04 1.58e-02 1.31e-04  -9.0 1.74e+02  -6.1 1.00e+00 1.00e+00f  1
 102r 4.7737708e+04 1.58e-02 1.88e-04  -9.0 5.23e+02  -6.6 1.00e+00 1.00e+00f  1
 103r 4.7737692e+04 1.55e-02 1.70e-03  -9.0 1.57e+03  -7.1 1.00e+00 1.00e+00f  1
 104r 4.7737643e+04 1.48e-02 1.55e-02  -9.0 4.73e+03  -7.6 1.00e+00 1.00e+00f  1
 105r 4.7737508e+04 1.26e-02 1.45e-01  -9.0 1.44e+04  -8.0 1.00e+00 1.00e+00f  1
 106r 4.7737352e+04 9.92e-03 1.69e+01  -9.0 4.49e+04  -8.5 1.00e+00 3.86e-01f  1
 107  2.7379376e+04 1.27e-03 6.25e+06  -3.8 1.03e+07    -  9.49e-01 1.00e+00F  1
 108  2.7524396e+04 3.60e-06 2.93e+09  -3.8 7.84e+04    -  9.05e-01 1.00e+00h  1
 109  2.7505778e+04 4.36e-08 2.92e+09  -3.8 1.00e+04    -  1.52e-03 1.00e+00f  1
iter    objective    inf_pr   inf_du lg(mu)  ||d||  lg(rg) alpha_du alpha_pr  ls
 110  2.7465640e+04 1.93e-07 4.46e+05  -3.8 2.16e+04  -7.1 1.00e+00 1.00e+00f  1
 111  1.2519267e+01 8.88e+01 4.45e+05  -3.8 2.94e+07    -  1.09e-03 1.00e+00f  1
 112  8.8917660e+00 4.10e-01 1.22e+05  -3.8 2.21e+05    -  7.27e-01 1.00e+00f  1
 113  1.0128177e+01 3.50e-02 1.06e+04  -3.8 2.18e+05  -7.5 9.12e-01 1.00e+00h  1
 114  9.9517344e+00 7.72e-04 3.86e+02  -3.8 2.75e+04  -8.0 9.64e-01 1.00e+00h  1
 115  8.2926173e+00 1.99e-02 2.62e+08  -5.7 1.45e+05    -  9.91e-01 1.00e+00f  1
 116  8.0094758e+00 5.39e-04 9.59e-03  -5.7 1.95e+04    -  1.00e+00 1.00e+00h  1
 117  8.0018731e+00 2.48e-06 5.43e-05  -5.7 1.36e+03    -  1.00e+00 1.00e+00h  1
 118  8.0018417e+00 1.66e-11 3.84e-08  -8.6 3.49e+00    -  1.00e+00 1.00e+00h  1

Number of Iterations....: 118

                                   (scaled)                 (unscaled)
Objective...............:   8.0018417288774284e+00    8.0018417288774284e+00
Dual infeasibility......:   3.8417056202888489e-08    3.8417056202888489e-08
Constraint violation....:   1.6584483786274973e-11    1.6584483786274973e-11
Complementarity.........:   2.5065162552163964e-09    2.5065162552163964e-09
Overall NLP error.......:   1.1589293260096641e-10    3.8417056202888489e-08


Number of objective function evaluations             = 335
Number of objective gradient evaluations             = 61
Number of equality constraint evaluations            = 335
Number of inequality constraint evaluations          = 0
Number of equality constraint Jacobian evaluations   = 120
Number of inequality constraint Jacobian evaluations = 0
Number of Lagrangian Hessian evaluations             = 118
Total CPU secs in IPOPT (w/o function evaluations)   =      0.121
Total CPU secs in NLP function evaluations           =      2.709

EXIT: Optimal Solution Found.
